Traveling Salesman Problem/TSP_generados/Aleatorio1620391005_12.tsp
NAME: Aleatorio1620391005_12.tsp
COMMENT: Randomly generated scenario
TYPE: TSP
DIMENSION: 12
EDGE_WEIGHT_TYPE: ATT
NODE_COORD_SECTION
1 25.68 20.71
2 21.7 12.89
3 47.45 30.06
4 31.08 24.13
5 42.97 34.68
6 6.51 17.5
7 17.02 22.14
8 19.41 14.58
9 10.98 29.84
10 6.18 29.76
11 30.01 25.31
12 16.34 24.17
