Traveling Salesman Problem/TSP_generados/Aleatorio1620391005_12.opt.tour
NAME: Aleatorio1620391005_12.opt.tour
COMMENT: Optimal solution for Aleatorio1620391005_12 (111.4573844272724)
TYPE: TOUR
DIMENSION: 12
TOUR_SECTION
1 2 8 6 10 9 12 7 11 5 3 4
-1
EOF
